
Log started (V12.6.1.0) Tue Dec 19 15:55:27 2017


Problem '1219.lp' read.
Read time = 0.03 sec. (0.48 ticks)
Tried aggregator 2 times.
MIP Presolve eliminated 2064 rows and 300 columns.
MIP Presolve modified 154 coefficients.
Aggregator did 22 substitutions.
Reduced MIP has 2344 rows, 1320 columns, and 8360 nonzeros.
Reduced MIP has 1320 binaries, 0 generals, 0 SOSs, and 0 indicators.
Presolve time = 0.03 sec. (18.56 ticks)
Found incumbent of value 81.757576 after 0.08 sec. (30.78 ticks)
Probing fixed 88 vars, tightened 0 bounds.
Probing changed sense of 110 constraints.
Probing time = 0.11 sec. (99.02 ticks)
Tried aggregator 1 time.
MIP Presolve eliminated 0 rows and 88 columns.
Reduced MIP has 2344 rows, 1232 columns, and 8096 nonzeros.
Reduced MIP has 1232 binaries, 0 generals, 0 SOSs, and 0 indicators.
Presolve time = 0.00 sec. (5.50 ticks)
Probing time = 0.00 sec. (4.03 ticks)
Clique table members: 4304.
MIP emphasis: balance optimality and feasibility.
MIP search method: dynamic search.
Parallel mode: deterministic, using up to 4 threads.
Root relaxation solution time = 0.03 sec. (20.53 ticks)

        Nodes                                         Cuts/
   Node  Left     Objective  IInf  Best Integer    Best Bound    ItCnt     Gap

*     0+    0                           81.7576        0.0000           100.00%
*     0+    0                           80.2727        0.0000           100.00%
      0     0       47.1072   186       80.2727       47.1072      381   41.32%
*     0+    0                           59.9697       47.1072            21.45%
      0     0       47.5530   178       59.9697      Cuts: 31      536   20.70%
      0     0       47.8308   185       59.9697  ZeroHalf: 23      638   20.24%
      0     0       48.0484   184       59.9697      Cuts: 16      721   19.88%
*     0+    0                           56.2727       48.0484            14.62%
      0     0       48.1248   196       56.2727  ZeroHalf: 19      775   14.48%
      0     0       48.2185   185       56.2727   ZeroHalf: 5      863   14.31%
      0     0       48.2423   210       56.2727   ZeroHalf: 9      918   14.27%
      0     0       48.2748   196       56.2727   ZeroHalf: 7      961   14.21%
      0     0       48.2893   175       56.2727   ZeroHalf: 8     1004   14.19%
      0     0       48.2939   201       56.2727   ZeroHalf: 7     1023   14.18%
      0     2       48.2939   201       56.2727       48.9555     1023   13.00%
Elapsed time = 1.11 sec. (632.24 ticks, tree = 0.00 MB, solutions = 4)
    108    72       48.5143   188       56.2727       48.9555     6934   13.00%
*   113+   73                           55.9091       48.9555            12.44%
    395   242       53.0053   105       55.9091       48.9555    17028   12.44%
    730   496       51.5142   112       55.9091       49.6212    29487   11.25%
   1019   667       54.0303    47       55.9091       50.4488    39271    9.77%
   1390   840       52.6029    69       55.9091       51.2648    51099    8.31%
   1794   983       55.8118    79       55.9091       51.8165    62042    7.32%
   2322  1154       53.4276    47       55.9091       52.4303    75945    6.22%
   2595  1120        cutoff             55.9091       52.8788    85906    5.42%
   3053  1129       55.0135    78       55.9091       53.2165    96845    4.82%

Clique cuts applied:  2
Implied bound cuts applied:  67
Zero-half cuts applied:  51
Gomory fractional cuts applied:  1

Root node processing (before b&c):
  Real time             =    1.11 sec. (630.98 ticks)
Parallel b&c, 4 threads:
  Real time             =    4.17 sec. (2882.67 ticks)
  Sync time (average)   =    0.30 sec.
  Wait time (average)   =    0.31 sec.
                          ------------
Total (root+branch&cut) =    5.28 sec. (3513.66 ticks)

Solution pool: 5 solutions saved.

MIP - Integer optimal solution:  Objective = 5.5909090909e+001
Solution time =    5.30 sec.  Iterations = 125232  Nodes = 4561
Deterministic time = 3513.66 ticks  (663.33 ticks/sec)

